<?xml version = "1.0" encoding="UTF-8" standalone="yes"?>
<CPLEXSolution version="1.2">
 <header
   problemName="C:\\Users\\hp\\Desktop\\HultPrize 21\\GUI\\out\\production\\GUI\\SacADos.lp"
   solutionName="incumbent"
   solutionIndex="-1"
   objectiveValue="19"
   solutionTypeValue="3"
   solutionTypeString="primal"
   solutionStatusValue="101"
   solutionStatusString="integer optimal solution"
   solutionMethodString="mip"
   primalFeasible="1"
   dualFeasible="1"
   MIPNodes="0"
   MIPIterations="1"
   writeLevel="1"/>
 <quality
   epInt="1.0000000000000001e-05"
   epRHS="9.9999999999999995e-07"
   maxIntInfeas="0"
   maxPrimalInfeas="0"
   maxX="1"
   maxSlack="0"/>
 <linearConstraints>
  <constraint name="c1" index="0" slack="0"/>
 </linearConstraints>
 <variables>
  <variable name="x(1)" index="0" value="0"/>
  <variable name="x(2)" index="1" value="1"/>
  <variable name="x(3)" index="2" value="1"/>
  <variable name="x(4)" index="3" value="0"/>
  <variable name="x(5)" index="4" value="0"/>
  <variable name="x(6)" index="5" value="1"/>
  <variable name="x(7)" index="6" value="1"/>
 </variables>
</CPLEXSolution>
